(set-logic QF_S)
(declare-fun N () String)
(declare-fun J () String)
(declare-fun I () String)
(declare-fun K () String)
(declare-fun F () String)
(declare-fun G () String)
(declare-fun L () String)
(declare-fun M () String)
(declare-fun P () String)
(declare-fun Q () String)
(assert (= (str.++  F I "aa" I "a" F I "aa" I "b" K K J K "b" L "b" P)  (str.++  "a" G I I G G L J L J "b" N M N M "b" Q Q "baa") ))
(check-sat)
(get-model)
